(set-logic QF_S)
(declare-fun var0 () Int)
(declare-fun var1 () Int)
(declare-fun var2 () Int)
(declare-fun var3 () Int)
(declare-fun var4 () String)
(declare-fun var5 () String)
(declare-fun var6 () String)
(declare-fun var7 () String)
(assert (> var0 var1))
(assert (not (<= var2 var3)))
(assert (<= (str.len (str.replace var4 var5 var6)) (str.len (str.substr var7 var0 var0))))
(assert (str.in.re var7 re.allchar))
(check-sat)